NAME: random-42-31669
TYPE: TSP
COMMENT: size=42 seed=31669
DIMENSION: 86
EDGE_WEIGHT_TYPE: EUC_2D
NODE_COORD_SECTION
+0 883 826
-0 883 826
+1 986 670
-1 553 176
+2 223 121
-2 545 882
+3 343 280
-3 932 82
+4 425 480
-4 86 376
+5 720 458
-5 477 178
+6 981 688
-6 167 906
+7 326 833
-7 177 308
+8 311 182
-8 320 559
+9 306 443
-9 256 106
+10 442 516
-10 322 658
+11 561 658
-11 591 880
+12 294 293
-12 391 894
+13 742 754
-13 973 179
+14 627 855
-14 499 161
+15 115 435
-15 831 415
+16 354 636
-16 697 121
+17 474 432
-17 530 534
+18 37 164
-18 613 490
+19 194 442
-19 273 584
+20 183 296
-20 7 275
+21 961 216
-21 440 745
+22 522 782
-22 677 387
+23 793 720
-23 895 877
+24 654 550
-24 759 51
+25 464 847
-25 234 323
+26 57 861
-26 496 831
+27 211 234
-27 436 580
+28 144 499
-28 979 460
+29 825 92
-29 394 518
+30 933 968
-30 568 712
+31 658 679
-31 403 311
+32 998 346
-32 968 635
+33 138 669
-33 77 383
+34 533 544
-34 934 403
+35 574 307
-35 758 56
+36 524 95
-36 483 68
+37 467 924
-37 603 470
+38 378 489
-38 556 771
+39 577 712
-39 603 790
+40 631 578
-40 34 38
+41 216 801
-41 798 77
+42 619 128
-42 556 177
PRECEDENCE_SECTION
+0 -0
+1 -1
+2 -2
+3 -3
+4 -4
+5 -5
+6 -6
+7 -7
+8 -8
+9 -9
+10 -10
+11 -11
+12 -12
+13 -13
+14 -14
+15 -15
+16 -16
+17 -17
+18 -18
+19 -19
+20 -20
+21 -21
+22 -22
+23 -23
+24 -24
+25 -25
+26 -26
+27 -27
+28 -28
+29 -29
+30 -30
+31 -31
+32 -32
+33 -33
+34 -34
+35 -35
+36 -36
+37 -37
+38 -38
+39 -39
+40 -40
+41 -41
+42 -42
EOF
